-1 8 2 8 4 1 1 -1 0 -1 
9 4 6 9 0 9 8 2 2 -1 
0 9 3 6 1 3 -1 4 6 -1 
8 9 2 6 4 9 9 -1 7 -1 
5 1 7 -1 1 1 3 -1 -1 -1 
9 7 3 2 9 -1 4 3 5 -1 
4 9 8 1 -1 8 7 2 5 -1 
1 8 4 2 2 2 4 0 7 -1 
-1 9 5 2 1 5 0 6 1 -1 
4 1 1 9 8 9 -1 0 3 -1 
3 8 3 8 9 8 -1 1 7 -1 
9 -1 6 7 0 4 6 7 0 -1 
4 3 0 -1 5 1 7 8 8 -1 
3 0 3 1 9 6 6 5 1 -1 
8 1 1 6 3 3 6 -1 0 -1 
